W=7;
H=5;

MAX_TIME=7;
MAX_TRACKS=7;

TARGET=(3,7);

TRAINS=[(5,1,RIGHT),(1,1,RIGHT)];

INIT_POS=[
(1,1,STRAIGHT_RL),
(3,1,ROCK),
(3,2,ROCK),
(3,7,STRAIGHT_RL),
(5,1,STRAIGHT_RL),
];
TUNNEL_PAIRS=[
  (1, 6, DOWN, 5, 3, LEFT),
  (1, 3, LEFT, 5, 6, TOP),
];

GATES=[];
ACTIVATIONS=[];

DSWITCHES=[];

STATIONS=[];
